&CONTROL
  calculation = 'nscf',
  forc_conv_thr = 0.0001,
  outdir = '/scratch/beachk2/Jarvis/IPA/B1N1',
  prefix = 'bn',
  pseudo_dir = '/home/beachk2/PSEUDO/upf_files/PBE/ONCVPSP-master/sg15/',
  restart_mode = 'from_scratch',
  verbosity = 'high',
  wf_collect = .TRUE.,
/
&SYSTEM
  degauss = 0.005,
  ecutwfc = 70,
  force_symmorphic = .TRUE.,
  nbnd = 14,
  occupations = 'smearing',
  smearing = 'gaussian',
  ibrav = 0,
  nat = 2,
  ntyp = 2,
/
&ELECTRONS
  conv_thr = 1d-08,
  mixing_beta = 0.7,
  mixing_mode = 'plain',
/
&IONS
  ion_dynamics = 'bfgs',
/
&CELL
  cell_dofree = '2Dxy',
/
ATOMIC_SPECIES
  B  10.8110 B_ONCV_PBE_sr.upf
  N  14.0067 N_ONCV_PBE_sr.upf
ATOMIC_POSITIONS crystal
  B 0.666666 0.333334 0.000000
  N 0.000000 0.000000 0.000000
K_POINTS automatic
  27 27 1 0 0 0
CELL_PARAMETERS angstrom
  1.252630 -2.169619 0.000000
  1.252630 2.169619 0.000000
  0.000000 0.000000 20.000000
