&CONTROL
  calculation = 'nscf',
  forc_conv_thr = 0.0001,
  outdir = '/scratch/beachk2/Jarvis/IPA/Te2Mo1',
  prefix = 'bn',
  pseudo_dir = '/home/beachk2/PSEUDO/upf_files/PBE/ONCVPSP-master/sg15/',
  restart_mode = 'from_scratch',
  verbosity = 'high',
  wf_collect = .TRUE.,
/
&SYSTEM
  degauss = 0.005,
  ecutwfc = 70,
  force_symmorphic = .TRUE.,
  nbnd = 33,
  occupations = 'smearing',
  smearing = 'gaussian',
  ibrav = 0,
  nat = 3,
  ntyp = 2,
/
&ELECTRONS
  conv_thr = 1d-08,
  mixing_beta = 0.7,
  mixing_mode = 'plain',
/
&IONS
  ion_dynamics = 'bfgs',
/
&CELL
  cell_dofree = '2Dxy',
/
ATOMIC_SPECIES
  Mo  95.9400 Mo_ONCV_PBE_sr.upf
  Te  127.6000 Te_ONCV_PBE_sr.upf
ATOMIC_POSITIONS crystal
  Mo 0.333333 0.666667 0.108543
  Te 0.666667 0.333333 0.057370
  Te 0.666667 0.333333 0.159719
K_POINTS automatic
  19 19 1 0 0 0
CELL_PARAMETERS angstrom
  1.780491 -3.083902 0.000000
  1.780491 3.083902 0.000000
  0.000000 0.000000 35.346645
