&CONTROL
  calculation = 'scf',
  forc_conv_thr = 0.0001,
  outdir = '/scratch/beachk2/Jarvis/IPA/K1C1N1',
  prefix = 'bn',
  pseudo_dir = '/home/beachk2/PSEUDO/upf_files/PBE/ONCVPSP-master/sg15/',
  restart_mode = 'from_scratch',
  verbosity = 'high',
  wf_collect = .TRUE.,
/
&SYSTEM
  degauss = 0.005,
  ecutwfc = 70,
  force_symmorphic = .TRUE.,
  nbnd = 19,
  occupations = 'smearing',
  smearing = 'gaussian',
  ibrav = 0,
  nat = 3,
  ntyp = 3,
/
&ELECTRONS
  conv_thr = 1d-08,
  mixing_beta = 0.7,
  mixing_mode = 'plain',
/
&IONS
  ion_dynamics = 'bfgs',
/
&CELL
  cell_dofree = '2Dxy',
/
ATOMIC_SPECIES
  C  12.0107 C_ONCV_PBE_sr.upf
  K  39.0983 K_ONCV_PBE_sr.upf
  N  14.0067 N_ONCV_PBE_sr.upf
ATOMIC_POSITIONS crystal
  C 0.380182 0.085233 0.338565
  K 0.953790 0.507888 0.339047
  N 0.543671 -0.093122 0.339034
K_POINTS automatic
  9 9 1 0 0 0
CELL_PARAMETERS angstrom
  4.492371 -0.302778 0.000000
  -0.304130 4.603159 0.000000
  0.000000 0.000000 25.229401
