&CONTROL
  calculation = 'nscf',
  forc_conv_thr = 0.0001,
  outdir = '/scratch/beachk2/Jarvis/IPA/Bi1Te1Br1',
  prefix = 'bn',
  pseudo_dir = '/home/beachk2/PSEUDO/upf_files/PBE/ONCVPSP-master/sg15/',
  restart_mode = 'from_scratch',
  verbosity = 'high',
  wf_collect = .TRUE.,
/
&SYSTEM
  degauss = 0.005,
  ecutwfc = 70,
  force_symmorphic = .TRUE.,
  nbnd = 29,
  occupations = 'smearing',
  smearing = 'gaussian',
  ibrav = 0,
  nat = 3,
  ntyp = 3,
/
&ELECTRONS
  conv_thr = 1d-08,
  mixing_beta = 0.7,
  mixing_mode = 'plain',
/
&IONS
  ion_dynamics = 'bfgs',
/
&CELL
  cell_dofree = '2Dxy',
/
ATOMIC_SPECIES
  Bi  208.9804 Bi_ONCV_PBE_sr.upf
  Br  79.9040 Br_ONCV_PBE_sr.upf
  Te  127.6000 Te_ONCV_PBE_sr.upf
ATOMIC_POSITIONS crystal
  Bi -0.000000 0.000000 0.077810
  Br 0.333332 0.666668 0.000847
  Te 0.666667 0.333333 0.151950
K_POINTS automatic
  16 16 1 0 0 0
CELL_PARAMETERS angstrom
  2.173989 -3.765458 0.000000
  2.173989 3.765458 0.000000
  0.000000 0.000000 23.590555
