&CONTROL
  calculation = 'scf',
  forc_conv_thr = 0.0001,
  outdir = '/scratch/beachk2/Jarvis/IPA/In2Se2',
  prefix = 'bn',
  pseudo_dir = '/home/beachk2/PSEUDO/upf_files/PBE/ONCVPSP-master/sg15/',
  restart_mode = 'from_scratch',
  verbosity = 'high',
  wf_collect = .TRUE.,
/
&SYSTEM
  degauss = 0.005,
  ecutwfc = 70,
  force_symmorphic = .TRUE.,
  nbnd = 29,
  occupations = 'smearing',
  smearing = 'gaussian',
  ibrav = 0,
  nat = 4,
  ntyp = 2,
/
&ELECTRONS
  conv_thr = 1d-08,
  mixing_beta = 0.7,
  mixing_mode = 'plain',
/
&IONS
  ion_dynamics = 'bfgs',
/
&CELL
  cell_dofree = '2Dxy',
/
ATOMIC_SPECIES
  In  114.8180 In_ONCV_PBE_sr.upf
  Se  78.9600 Se_ONCV_PBE_sr.upf
ATOMIC_POSITIONS crystal
  In 0.666667 0.333333 0.324754
  In 0.666667 0.333333 0.426161
  Se 0.333333 0.666667 0.278948
  Se 0.333333 0.666667 0.471985
K_POINTS automatic
  10 10 1 0 0 0
CELL_PARAMETERS angstrom
  4.086091 -0.000000 0.000000
  -2.043045 3.538658 0.000000
  0.000000 0.000000 27.889728
