&CONTROL
  calculation = 'nscf',
  forc_conv_thr = 0.0001,
  outdir = '/scratch/beachk2/Jarvis/IPA/W1S2',
  prefix = 'bn',
  pseudo_dir = '/home/beachk2/PSEUDO/upf_files/PBE/ONCVPSP-master/sg15/',
  restart_mode = 'from_scratch',
  verbosity = 'high',
  wf_collect = .TRUE.,
/
&SYSTEM
  degauss = 0.005,
  ecutwfc = 70,
  force_symmorphic = .TRUE.,
  nbnd = 30,
  occupations = 'smearing',
  smearing = 'gaussian',
  ibrav = 0,
  nat = 3,
  ntyp = 2,
/
&ELECTRONS
  conv_thr = 1d-08,
  mixing_beta = 0.7,
  mixing_mode = 'plain',
/
&IONS
  ion_dynamics = 'bfgs',
/
&CELL
  cell_dofree = '2Dxy',
/
ATOMIC_SPECIES
  S  32.0650 S_ONCV_PBE_sr.upf
  W  183.8400 W_ONCV_PBE_sr.upf
ATOMIC_POSITIONS crystal
  S 0.333333 0.666667 0.300621
  S 0.333333 0.666667 0.404740
  W 0.666667 0.333333 0.352682
K_POINTS automatic
  21 21 1 0 0 0
CELL_PARAMETERS angstrom
  1.594935 -2.762508 0.000000
  1.594935 2.762508 0.000000
  0.000000 0.000000 30.202402
