&CONTROL
  calculation = 'nscf',
  forc_conv_thr = 0.0001,
  outdir = '/scratch/beachk2/Jarvis/IPA/Sc1Ag1P2Se6',
  prefix = 'bn',
  pseudo_dir = '/home/beachk2/PSEUDO/upf_files/PBE/ONCVPSP-master/sg15/',
  restart_mode = 'from_scratch',
  verbosity = 'high',
  wf_collect = .TRUE.,
/
&SYSTEM
  degauss = 0.005,
  ecutwfc = 70,
  force_symmorphic = .TRUE.,
  nbnd = 48,
  occupations = 'smearing',
  smearing = 'gaussian',
  ibrav = 0,
  nat = 10,
  ntyp = 4,
/
&ELECTRONS
  conv_thr = 1d-08,
  mixing_beta = 0.7,
  mixing_mode = 'plain',
/
&IONS
  ion_dynamics = 'bfgs',
/
&CELL
  cell_dofree = '2Dxy',
/
ATOMIC_SPECIES
  Ag  107.8682 Ag_ONCV_PBE_sr.upf
  P  30.9738 P_ONCV_PBE_sr.upf
  Sc  44.9559 Sc_ONCV_PBE_sr.upf
  Se  78.9600 Se_ONCV_PBE_sr.upf
ATOMIC_POSITIONS crystal
  Ag 0.666667 0.333333 0.139581
  P 0.333333 0.666667 0.098095
  P 0.333333 0.666667 0.181066
  Sc 0.000000 0.000000 0.139577
  Se 0.304627 0.976586 0.074297
  Se 0.023414 0.328041 0.074297
  Se 0.671959 0.695373 0.074297
  Se 0.671967 0.976580 0.204862
  Se 0.023420 0.695386 0.204862
  Se 0.304614 0.328033 0.204862
K_POINTS automatic
  11 11 1 0 0 0
CELL_PARAMETERS angstrom
  6.528534 -0.000000 0.000000
  -3.264267 5.653876 0.000000
  0.000000 0.000000 27.168923
