&CONTROL
  calculation = 'vc-relax',
  forc_conv_thr = 0.0001,
  outdir = '/scratch/beachk2/Jarvis/SbNZr1Cl2',
  prefix = 'bn',
  pseudo_dir = '/home/beachk2/PSEUDO/upf_files/PBE/MartinsTroullier/',
  restart_mode = 'from_scratch',
  verbosity = 'high',
  wf_collect = '.true.',
/
&SYSTEM
  degauss = 0.005,
  ecutwfc = 70,
  force_symmorphic = '.true.',
  occupations = 'smearing',
  smearing = 'gaussian',
  ibrav = 0,
  nat = 3,
  ntyp = 2,
/
&ELECTRONS
  conv_thr = 1d-08,
  mixing_beta = 0.7,
  mixing_mode = 'plain',
/
&IONS
  ion_dynamics = 'bfgs',
/
&CELL
  cell_dofree = '2Dxy',
/
ATOMIC_SPECIES
  Cl  35.4530 Cl.pz-mt_fhi.UPF
  Zr  91.2240 Zr.pz-mt_fhi.UPF
ATOMIC_POSITIONS crystal
  Zr 0.333333 0.666667 0.536990
  Cl 0.000000 0.000000 0.470024
  Cl 0.000000 0.000000 0.603954
K_POINTS automatic
  12 12 1 0 0 0
CELL_PARAMETERS angstrom
  3.403962 0.000000 0.000000
  -1.701981 2.947917 0.000000
  0.000000 0.000000 25.717317