&CONTROL
  calculation = 'vc-relax',
  forc_conv_thr = 0.0001,
  outdir = './',
  prefix = 'bn',
  pseudo_dir = '/gpfs/u/home/TSDM/TSDMkrbc/scratch/BiTe3/PSEUDO-BiTe3-WS2/',
  restart_mode = 'from_scratch',
  verbosity = 'high',
  wf_collect = '.true.',
/
&SYSTEM
  degauss = 0.005,
  ecutwfc = 60,
  occupations = 'smearing',
  smearing = 'gaussian',
  ibrav = 0,
  nat = 93,
  ntyp = 4,
/
&ELECTRONS
  conv_thr = 1d-08,
  mixing_beta = 0.7,
  mixing_mode = 'plain',
/
&IONS
  ion_dynamics = 'bfgs',
/
&CELL
  cell_dofree = '2Dxy',
/
ATOMIC_SPECIES
  Bi  208.9804 Bi.pz-mt_fhi.UPF
  S  32.0650 S.pz-mt_fhi.UPF
  Te  127.6000 Te.pz-mt_fhi.UPF
  W  183.8400 W.pz-mt_fhi.UPF
ATOMIC_POSITIONS crystal
  Bi 0.000000 0.000000 0.386883
  Bi 0.000235 0.333369 0.386352
  Bi 0.000235 0.666866 0.386352
  Bi 0.333134 -0.000235 0.386352
  Bi 0.333134 0.333369 0.386352
  Bi 0.333333 0.666667 0.386332
  Bi 0.666631 -0.000235 0.386352
  Bi 0.666667 0.333333 0.385828
  Bi 0.666631 0.666866 0.386352
  Bi 0.110869 0.221738 0.257914
  Bi 0.112123 0.556061 0.257263
  Bi 0.110869 0.889131 0.257914
  Bi 0.442970 0.221485 0.258166
  Bi 0.443939 0.556061 0.257263
  Bi 0.443939 0.887877 0.257263
  Bi 0.778515 0.221485 0.258166
  Bi 0.778515 0.557030 0.258166
  Bi 0.778262 0.889131 0.257914
  Te 0.000000 0.000000 0.202442
  Te 0.001344 0.332719 0.202756
  Te 0.001344 0.668625 0.202756
  Te 0.331375 -0.001344 0.202756
  Te 0.331375 0.332719 0.202756
  Te 0.333333 0.666667 0.201630
  Te 0.667281 -0.001344 0.202756
  Te 0.666667 0.333333 0.204236
  Te 0.667281 0.668625 0.202756
  Te 0.221727 0.110864 0.322618
  Te 0.222335 0.444670 0.321801
  Te 0.222335 0.777665 0.321801
  Te 0.555182 0.110363 0.321614
  Te 0.555182 0.444818 0.321614
  Te 0.555330 0.777665 0.321801
  Te 0.889136 0.110864 0.322618
  Te 0.889637 0.444818 0.321614
  Te 0.889136 0.778273 0.322618
  Te 0.111493 0.222987 0.441316
  Te 0.111289 0.555644 0.441081
  Te 0.111493 0.888507 0.441316
  Te 0.445065 0.222533 0.440820
  Te 0.444356 0.555644 0.441081
  Te 0.444356 0.888711 0.441081
  Te 0.777467 0.222533 0.440820
  Te 0.777467 0.554935 0.440820
  Te 0.777013 0.888507 0.441316
  W 0.000000 0.000000 0.053359
  W -0.000022 0.250078 0.052702
  W -0.000036 0.499982 0.051977
  W -0.000022 0.749900 0.052702
  W 0.250100 0.000022 0.052702
  W 0.250100 0.250078 0.052702
  W 0.250015 0.500030 0.053096
  W 0.250015 0.749985 0.053096
  W 0.500018 0.000036 0.051977
  W 0.500089 0.250044 0.050788
  W 0.500018 0.499982 0.051977
  W 0.499970 0.749985 0.053096
  W 0.749922 0.000022 0.052702
  W 0.749956 0.250044 0.050788
  W 0.749956 0.499911 0.050788
  W 0.749922 0.749900 0.052702
  S 0.165777 0.082889 0.004623
  S 0.166846 0.333691 0.004512
  S 0.167998 0.583999 0.004379
  S 0.166846 0.833154 0.004512
  S 0.414990 0.081436 0.003349
  S 0.414990 0.333554 0.003349
  S 0.416001 0.583999 0.004379
  S 0.416001 0.832002 0.004379
  S 0.666446 0.081436 0.003349
  S 0.666667 0.333333 0.002134
  S 0.666446 0.585010 0.003349
  S 0.666309 0.833154 0.004512
  S 0.917111 0.082889 0.004623
  S 0.918564 0.333554 0.003349
  S 0.918564 0.585010 0.003349
  S 0.917111 0.834223 0.004623
  S 0.167830 0.083915 0.101563
  S 0.166536 0.333072 0.101480
  S 0.165140 0.582570 0.101348
  S 0.166536 0.833464 0.101480
  S 0.418826 0.085676 0.100077
  S 0.418826 0.333150 0.100077
  S 0.417430 0.582570 0.101348
  S 0.417430 0.834860 0.101348
  S 0.666850 0.085676 0.100077
  S 0.666667 0.333333 0.098660
  S 0.666850 0.581174 0.100077
  S 0.666928 0.833464 0.101480
  S 0.916085 0.083915 0.101563
  S 0.914324 0.333150 0.100077
  S 0.914324 0.581174 0.100077
  S 0.916085 0.832170 0.101563
K_POINTS automatic
  3 3 1 0 0 0
CELL_PARAMETERS angstrom
  12.650888 0.000000 0.000000
  -6.325444 10.955991 0.000000
  0.000000 0.000000 32.000000