&CONTROL
  calculation = 'vc-relax',
  forc_conv_thr = 0.0001,
  outdir = './',
  prefix = 'bn',
  pseudo_dir = '/gpfs/u/home/TSDM/TSDMkrbc/barn/Psuedopotentials/ONCV/',
  restart_mode = 'from_scratch',
  verbosity = 'high',
  wf_collect = '.true.',
/
&SYSTEM
  degauss = 0.005,
  ecutwfc = 80,
  force_symmorphic = '.true.',
  lspinorb = '.true.',
  noncolin = '.true.',
  occupations = 'smearing',
  smearing = 'gaussian',
  ibrav = 0,
  nat = 75,
  ntyp = 3,
/
&ELECTRONS
  conv_thr = 1d-08,
  mixing_beta = 0.7,
  mixing_mode = 'plain',
/
&IONS
  ion_dynamics = 'bfgs',
/
&CELL
  cell_dofree = '2Dxy',
/
ATOMIC_SPECIES
  S  32.0650 S_ONCV_PBE_fr.upf
  Se  78.9600 Se_ONCV_PBE_fr.upf
  W  183.8400 W_ONCV_PBE_fr.upf
ATOMIC_POSITIONS crystal
  W 0.066667 0.133333 0.250000
  W 0.066667 0.333333 0.250000
  W 0.066667 0.533333 0.250000
  W 0.066667 0.733333 0.250000
  W 0.066667 0.933333 0.250000
  W 0.266667 0.133333 0.250000
  W 0.266667 0.333333 0.250000
  W 0.266667 0.533333 0.250000
  W 0.266667 0.733333 0.250000
  W 0.266667 0.933333 0.250000
  W 0.466667 0.133333 0.250000
  W 0.466667 0.333333 0.250000
  W 0.466667 0.533333 0.250000
  W 0.466667 0.733333 0.250000
  W 0.466667 0.933333 0.250000
  W 0.666667 0.133333 0.250000
  W 0.666667 0.333333 0.250000
  W 0.666667 0.533333 0.250000
  W 0.666667 0.733333 0.250000
  W 0.666667 0.933333 0.250000
  W 0.866667 0.133333 0.250000
  W 0.866667 0.333333 0.250000
  W 0.866667 0.533333 0.250000
  W 0.866667 0.733333 0.250000
  W 0.866667 0.933333 0.250000
  Se 0.133333 0.066667 0.166028
  Se 0.133333 0.266667 0.166028
  Se 0.133333 0.466667 0.166028
  Se 0.133333 0.666667 0.166028
  Se 0.133333 0.866667 0.166028
  Se 0.333333 0.066667 0.166028
  Se 0.333333 0.266667 0.166028
  Se 0.333333 0.466667 0.166028
  Se 0.333333 0.666667 0.166028
  Se 0.533333 0.066667 0.166028
  Se 0.533333 0.266667 0.166028
  Se 0.533333 0.466667 0.166028
  Se 0.533333 0.666667 0.166028
  Se 0.533333 0.866667 0.166028
  Se 0.733333 0.066667 0.166028
  Se 0.733333 0.266667 0.166028
  Se 0.733333 0.466667 0.166028
  Se 0.733333 0.666667 0.166028
  Se 0.733333 0.866667 0.166028
  Se 0.933333 0.066667 0.166028
  Se 0.933333 0.266667 0.166028
  Se 0.933333 0.466667 0.166028
  Se 0.933333 0.666667 0.166028
  Se 0.933333 0.866667 0.166028
  Se 0.133333 0.066667 0.333971
  Se 0.133333 0.266667 0.333971
  Se 0.133333 0.466667 0.333971
  Se 0.133333 0.666667 0.333971
  Se 0.133333 0.866667 0.333971
  Se 0.333333 0.066667 0.333971
  Se 0.333333 0.266667 0.333971
  Se 0.333333 0.466667 0.333971
  Se 0.333333 0.666667 0.333971
  Se 0.533333 0.066667 0.333971
  Se 0.533333 0.266667 0.333971
  Se 0.533333 0.466667 0.333971
  Se 0.533333 0.666667 0.333971
  Se 0.533333 0.866667 0.333971
  Se 0.733333 0.066667 0.333971
  Se 0.733333 0.266667 0.333971
  Se 0.733333 0.466667 0.333971
  Se 0.733333 0.666667 0.333971
  Se 0.733333 0.866667 0.333971
  Se 0.933333 0.066667 0.333971
  Se 0.933333 0.266667 0.333971
  Se 0.933333 0.466667 0.333971
  Se 0.933333 0.666667 0.333971
  Se 0.933333 0.866667 0.333971
  S 0.333333 0.866667 0.166028
  S 0.333333 0.866667 0.333971
K_POINTS automatic
  3 3 1 0 0 0
CELL_PARAMETERS angstrom
  16.608457 0.000000 0.000000
  -8.304229 14.383346 0.000000
  0.000000 0.000000 20.000000