&CONTROL
  calculation = 'nscf',
  forc_conv_thr = 0.0001,
  outdir = '/scratch/beachk2/Jarvis/IPA/Ga2Se2',
  prefix = 'bn',
  pseudo_dir = '/home/beachk2/PSEUDO/upf_files/PBE/ONCVPSP-master/sg15/',
  restart_mode = 'from_scratch',
  verbosity = 'high',
  wf_collect = .TRUE.,
/
&SYSTEM
  degauss = 0.005,
  ecutwfc = 70,
  force_symmorphic = .TRUE.,
  nbnd = 29,
  occupations = 'smearing',
  smearing = 'gaussian',
  ibrav = 0,
  nat = 4,
  ntyp = 2,
/
&ELECTRONS
  conv_thr = 1d-08,
  mixing_beta = 0.7,
  mixing_mode = 'plain',
/
&IONS
  ion_dynamics = 'bfgs',
/
&CELL
  cell_dofree = '2Dxy',
/
ATOMIC_SPECIES
  Ga  69.7230 Ga_ONCV_PBE_sr.upf
  Se  78.9600 Se_ONCV_PBE_sr.upf
ATOMIC_POSITIONS crystal
  Ga 0.333334 0.666666 0.047064
  Ga 0.333334 0.666666 0.146620
  Se 0.000000 0.000000 0.194554
  Se 0.000000 0.000000 -0.000642
K_POINTS automatic
  18 18 1 0 0 0
CELL_PARAMETERS angstrom
  1.893599 -3.279809 0.000000
  1.893599 3.279809 0.000000
  0.000000 0.000000 24.808006
