&CONTROL
  calculation = 'scf',
  forc_conv_thr = 0.0001,
  outdir = '/scratch/beachk2/Jarvis/IPA/W1Se2',
  prefix = 'bn',
  pseudo_dir = '/home/beachk2/PSEUDO/upf_files/PBE/ONCVPSP-master/sg15/',
  restart_mode = 'from_scratch',
  verbosity = 'high',
  wf_collect = .TRUE.,
/
&SYSTEM
  degauss = 0.005,
  ecutwfc = 70,
  force_symmorphic = .TRUE.,
  nbnd = 30,
  occupations = 'smearing',
  smearing = 'gaussian',
  ibrav = 0,
  nat = 3,
  ntyp = 2,
/
&ELECTRONS
  conv_thr = 1d-08,
  mixing_beta = 0.7,
  mixing_mode = 'plain',
/
&IONS
  ion_dynamics = 'bfgs',
/
&CELL
  cell_dofree = '2Dxy',
/
ATOMIC_SPECIES
  Se  78.9600 Se_ONCV_PBE_sr.upf
  W  183.8400 W_ONCV_PBE_sr.upf
ATOMIC_POSITIONS crystal
  Se 0.333333 0.666667 0.059516
  Se 0.333333 0.666667 0.155331
  W 0.666667 0.333333 0.107425
K_POINTS automatic
  12 12 1 0 0 0
CELL_PARAMETERS angstrom
  1.659962 -2.875138 0.000000
  1.659962 2.875138 0.000000
  0.000000 0.000000 35.068951
